입력하중,PIPE 길이,PIPE 직경,용접길이,A11,A12,A21,A22,D1,D2,vonMises,predict,std,accuracy
100,300,45,25,0,0,0,60,40,68,145.817,145.81699999421835,0.007612750017134154,3.965009442931721e-09
100,300,45,25,0,0,0,90,40,68,63.605,63.605000007897615,0.006560060476608773,1.2416663089610368e-08
