입력하중,PIPE 길이,PIPE 직경,용접길이,A11,A12,A21,A22,D1,D2,vonMises,predict,std
100,300,45,25,0,60,-40,0,40,68,,336.06881335006756,14.464345061742431
100,300,45,25,0,-20,-40,0,40,68,,329.44682911865766,13.974504199949648
100,300,45,25,60,40,0,0,40,68,,285.7528780261646,13.962593279868182
100,300,45,25,60,0,-20,0,40,68,,333.13799897499666,10.82762849158529
100,300,45,25,-10,0,-20,0,40,68,,308.18797275303086,8.246479578501654
100,300,45,25,0,0,0,60,40,68,145.817,172.24251049121722,18.879081026204997
100,300,45,25,0,0,0,90,40,68,63.605,123.68928243902474,54.166441149187406
