입력하중,PIPE 길이,PIPE 직경,용접길이,A11,A12,A21,A22,D1,D2,Location,vonMises
100,300,45,25,0,60,-40,0,40,68,,
100,300,45,25,0,-20,-40,0,40,68,,
100,300,45,25,60,40,0,0,40,68,,
100,300,45,25,60,0,-20,0,40,68,,
100,300,45,25,-10,0,-20,0,40,68,,
100,300,45,25,0,0,0,60,40,68,PIPE,145.817
100,300,45,25,0,0,0,90,40,68,Hrod,63.605
